12 11 14 1 6 8 5 2 10 13 3 0 9 7 4
1 4 11 5 3 12 8 0 14 2 10 7 13 6 9
9 12 5 14 13 3 11 8 10 7 4 1 0 6 2
0 9 2 3 8 10 1 5 14 6 11 12 4 7 13
7 12 8 11 14 13 3 0 10 2 9 5 1 6 4
13 7 3 9 14 1 0 4 10 5 12 2 8 11 6
12 3 0 9 13 14 10 5 4 8 11 7 2 1 6
7 8 0 2 6 13 10 5 4 11 14 9 3 1 12
2 0 13 1 8 14 4 3 6 12 11 9 10 5 7
12 0 11 10 14 9 3 5 13 2 4 1 6 8 7
12 13 9 8 14 0 11 1 5 2 6 10 7 3 4
5 3 14 1 10 6 12 2 11 4 7 8 9 13 0
9 5 12 6 14 3 4 8 13 7 0 1 11 2 10
7 13 3 12 8 1 11 5 9 2 4 6 10 0 14
6 12 8 0 14 9 5 7 3 4 11 2 13 1 10